* ENCODING=ISO-8859-1
NAME          CPLEX
ROWS
 N  obj1    
 G  c1      
 G  c2      
 G  c3      
 G  c4      
 G  c5      
 G  c6      
 G  c7      
 G  c8      
 G  c9      
 G  c10     
 G  c11     
 G  c12     
 G  c13     
 G  c14     
 G  c15     
 G  c16     
 G  c17     
 G  c18     
 G  c19     
 G  c20     
 G  c21     
 G  c22     
 G  c23     
 G  c24     
 G  c25     
COLUMNS
    MARK0000  'MARKER'                 'INTORG'
    x1        obj1                            1
    x1        c2                            833
    x1        c8                            482
    x1        c22                           950
    x2        obj1                            1
    x2        c13                           170
    x3        obj1                            1
    x3        c25                           716
    x4        obj1                            1
    x4        c8                            742
    x4        c15                           905
    x4        c21                           124
    x5        obj1                            1
    x5        c4                            933
    x5        c16                           669
    x6        obj1                            1
    x6        c1                            683
    x6        c5                            759
    x6        c16                           724
    x6        c22                           557
    x7        obj1                            1
    x7        c1                            135
    x7        c5                            627
    x7        c10                           913
    x7        c20                           969
    x8        obj1                            1
    x8        c4                            369
    x8        c7                            743
    x8        c8                            247
    x9        obj1                            1
    x10       obj1                            1
    x10       c2                            585
    x10       c14                           724
    x10       c18                           368
    x11       obj1                            1
    x12       obj1                            1
    x12       c14                           933
    x12       c22                           714
    x13       obj1                            1
    x13       c1                            211
    x13       c3                            506
    x13       c12                           451
    x14       obj1                            1
    x15       obj1                            1
    x16       obj1                            1
    x16       c2                            508
    x16       c7                            115
    x16       c25                           329
    x17       obj1                            1
    x17       c9                            278
    x17       c11                           240
    x17       c23                           246
    x17       c24                           566
    x18       obj1                            1
    x18       c7                            639
    x18       c14                           916
    x19       obj1                            1
    x19       c23                           297
    x20       obj1                            1
    x20       c15                           610
    x21       obj1                            1
    x21       c7                            452
    x22       obj1                            1
    x22       c1                            778
    x22       c4                            652
    x23       obj1                            1
    x23       c7                            372
    x23       c11                           921
    x23       c17                           997
    x24       obj1                            1
    x24       c11                           119
    x24       c24                           576
    x25       obj1                            1
    x25       c1                            255
    x25       c8                            506
    x25       c17                           752
    x25       c20                           450
    x25       c23                           300
    x26       obj1                            1
    x26       c3                            907
    x26       c5                            263
    x26       c9                            555
    x27       obj1                            1
    x27       c3                            806
    x27       c5                            321
    x27       c11                           888
    x27       c14                           145
    x27       c17                           915
    x27       c24                           815
    x28       obj1                            1
    x28       c18                           394
    x28       c20                           519
    x29       obj1                            1
    x29       c6                            480
    x30       obj1                            1
    x30       c1                            112
    x30       c12                           769
    x30       c15                           574
    x31       obj1                            1
    x31       c10                           100
    x31       c21                           133
    x31       c23                           756
    x32       obj1                            1
    x32       c6                            200
    x32       c9                            316
    x32       c24                           954
    x32       c25                           222
    x33       obj1                            1
    x33       c4                            211
    x33       c13                           517
    x34       obj1                            1
    x34       c8                            658
    x34       c16                           793
    x35       obj1                            1
    x35       c15                           112
    x36       obj1                            1
    x37       obj1                            1
    x37       c2                            965
    x37       c6                            340
    x37       c9                            328
    x37       c21                           532
    x37       c25                           897
    x38       obj1                            1
    x38       c9                            321
    x38       c13                           593
    x38       c19                           564
    x39       obj1                            1
    x39       c3                            473
    x39       c10                           652
    x39       c12                           234
    x39       c13                           260
    x40       obj1                            1
    x40       c11                           392
    x40       c16                           691
    x40       c20                           498
    x40       c23                           250
    x41       obj1                            1
    x41       c4                            618
    x41       c20                           940
    x42       obj1                            1
    x42       c25                           701
    x43       obj1                            1
    x44       obj1                            1
    x44       c17                           174
    x44       c25                           985
    x45       obj1                            1
    x45       c11                           211
    x45       c15                           670
    x46       obj1                            1
    x46       c7                            816
    x46       c11                           255
    x47       obj1                            1
    x47       c4                            405
    x47       c5                            662
    x47       c13                           986
    x47       c19                           391
    x47       c21                           398
    x48       obj1                            1
    x48       c3                            884
    x48       c6                            618
    x48       c7                            855
    x48       c19                           355
    x49       obj1                            1
    x49       c8                            233
    x49       c18                           743
    x49       c19                           366
    x49       c21                           271
    x50       obj1                            1
    x50       c13                           567
    MARK0001  'MARKER'                 'INTEND'
RHS
    rhs       c1                           1087
    rhs       c2                           1446
    rhs       c3                           1788
    rhs       c4                           1594
    rhs       c5                           1316
    rhs       c6                            819
    rhs       c7                           1996
    rhs       c8                           1434
    rhs       c9                            899
    rhs       c10                           833
    rhs       c11                          1513
    rhs       c12                           727
    rhs       c13                          1547
    rhs       c14                          1359
    rhs       c15                          1436
    rhs       c16                          1439
    rhs       c17                          1419
    rhs       c18                           753
    rhs       c19                           838
    rhs       c20                          1688
    rhs       c21                           729
    rhs       c22                          1111
    rhs       c23                           925
    rhs       c24                          1456
    rhs       c25                          1925
BOUNDS
 LI bnd       x1        0
 LI bnd       x2        0
 LI bnd       x3        0
 LI bnd       x4        0
 LI bnd       x5        0
 LI bnd       x6        0
 LI bnd       x7        0
 LI bnd       x8        0
 LI bnd       x9        0
 LI bnd       x10       0
 LI bnd       x11       0
 LI bnd       x12       0
 LI bnd       x13       0
 LI bnd       x14       0
 LI bnd       x15       0
 LI bnd       x16       0
 LI bnd       x17       0
 LI bnd       x18       0
 LI bnd       x19       0
 LI bnd       x20       0
 LI bnd       x21       0
 LI bnd       x22       0
 LI bnd       x23       0
 LI bnd       x24       0
 LI bnd       x25       0
 LI bnd       x26       0
 LI bnd       x27       0
 LI bnd       x28       0
 LI bnd       x29       0
 LI bnd       x30       0
 LI bnd       x31       0
 LI bnd       x32       0
 LI bnd       x33       0
 LI bnd       x34       0
 LI bnd       x35       0
 LI bnd       x36       0
 LI bnd       x37       0
 LI bnd       x38       0
 LI bnd       x39       0
 LI bnd       x40       0
 LI bnd       x41       0
 LI bnd       x42       0
 LI bnd       x43       0
 LI bnd       x44       0
 LI bnd       x45       0
 LI bnd       x46       0
 LI bnd       x47       0
 LI bnd       x48       0
 LI bnd       x49       0
 LI bnd       x50       0
ENDATA
